50
13399

980 363
997 911
199 179
830 990
505 860
66 666
460 306
229 483
177 763
693 238
88 36
498 451
598 680
1000 885
832 656
264 817
266 503
263 575
99 18
986 901
35 882
279 304
631 739
62 232
994 616
680 32
551 453
164 830
832 409
936 207
53 72
520 393
480 559
157 457
490 93
116 390
51 884
794 997
767 828
434 649
552 863
359 523
192 280
128 115
891 867
643 686
888 786
791 739
228 452
838 254
